134
0 39 13 84 89 115 58 108 67 22 
64 113 45 15 54 27 96 104 33 79 
106 43 80 10 78 17 40 116 37 107 
91 77 3 44 82 102 110 2 25 1 
87 118 93 72 112 18 101 69 109 131 
7 133 98 123 24 62 19 9 60 6 
95 32 42 20 59 114 29 81 8 28 
12 23 125 50 46 117 52 120 38 16 
66 14 31 4 86 5 130 65 49 35 
75 103 90 122 129 121 47 36 63 94 
126 21 55 128 97 61 124 85 100 88 
34 30 68 53 57 76 127 132 92 70 
41 71 51 83 105 74 56 99 111 119 
73 11 26 48 
